(set-logic QF_SLIA)
(declare-const result String)
(declare-const attack String)
(declare-const prefix RegLan)
(declare-const infix RegLan)
(declare-const postfix RegLan)
(declare-const postfixs String)

(assert (str.in_re attack (re.++ prefix ((_ re.loop 5000 5000) infix) postfix)))
(assert (= prefix 
     (re.++  (str.to_re "\u{68}") (re.++  (str.to_re "\u{74}")  (str.to_re "\u{63}")))
))
(assert (= infix 
        (re.inter  (re.++ (re.+  (re.union (re.union (str.to_re "\u{09}") (str.to_re "\u{0a}") (str.to_re "\u{0d}") (str.to_re " ")) (re.union  (str.to_re "\u{3b}") (re.union  (str.to_re "\u{5c}\u{2d}")  (str.to_re "\u{5f}")))) ) (re.+  (re.union (re.union (str.to_re "\u{09}") (str.to_re "\u{0a}") (str.to_re "\u{0d}") (str.to_re " ")) (re.union (re.range "a" "z") (re.range "A" "Z") (re.range "0" "9") (str.to_re "_"))) ))  (re.++ (re.+  (re.union (re.union (str.to_re "\u{09}") (str.to_re "\u{0a}") (str.to_re "\u{0d}") (str.to_re " ")) (re.union  (str.to_re "\u{3b}") (re.union  (str.to_re "\u{5c}\u{2d}")  (str.to_re "\u{5f}")))) ) (re.+  (re.union (re.union (str.to_re "\u{09}") (str.to_re "\u{0a}") (str.to_re "\u{0d}") (str.to_re " ")) (re.union (re.range "a" "z") (re.range "A" "Z") (re.range "0" "9") (str.to_re "_"))) )) )
))
(assert (= postfix 
        (re.inter  (re.inter  (re.++  (str.to_re "\u{09}") (re.++  (str.to_re "\u{20}") (re.*  (re.union (re.union (str.to_re "\u{09}") (str.to_re "\u{0a}") (str.to_re "\u{0d}") (str.to_re " ")) (re.inter re.allchar (re.comp (re.union (str.to_re "\u{09}") (str.to_re "\u{0a}") (str.to_re "\u{0d}") (str.to_re " "))))) ))) (re.comp (re.+  (re.union (re.union (str.to_re "\u{09}") (str.to_re "\u{0a}") (str.to_re "\u{0d}") (str.to_re " ")) (re.union (re.range "a" "z") (re.range "A" "Z") (re.range "0" "9") (str.to_re "_"))) )))  (re.inter  (re.++  (str.to_re "\u{09}") (re.++  (str.to_re "\u{20}") (re.*  (re.union (re.union (str.to_re "\u{09}") (str.to_re "\u{0a}") (str.to_re "\u{0d}") (str.to_re " ")) (re.inter re.allchar (re.comp (re.union (str.to_re "\u{09}") (str.to_re "\u{0a}") (str.to_re "\u{0d}") (str.to_re " "))))) ))) (re.comp  (re.++ (re.+  (re.union (re.union (str.to_re "\u{09}") (str.to_re "\u{0a}") (str.to_re "\u{0d}") (str.to_re " ")) (re.union (re.range "a" "z") (re.range "A" "Z") (re.range "0" "9") (str.to_re "_"))) )  (re.union  (str.to_re "\u{5c}\u{29}")  (re.++ (re.union (str.to_re "\u{09}") (str.to_re "\u{0a}") (str.to_re "\u{0d}") (str.to_re " ")) (re.++  (str.to_re "\u{62}") (re.++  (str.to_re "\u{75}") (re.++  (str.to_re "\u{69}") (re.++  (str.to_re "\u{6c}") (re.++  (str.to_re "\u{64}") (re.* (re.range "\u{00}" "\u{ffff}") ))))))))))) )
))
(assert (str.in_re postfixs postfix))
(assert (>= (str.len postfixs) 1))
(assert (= result (str.++ attack postfixs)))
(check-sat)
(get-model)